Minimize
  1362.68 x0 + 1476 x1 + 766.08 x10 + 871.68 x100 + 1412.95 x101
   + 1039.5 x102 + 739.2 x103 + 2310 x104 + 972.72 x105 + 1238.4 x106
   + 1299.8 x107 + 1241.6 x108 + 2053.92 x109 + 1152.58 x11 + 1478.2 x110
   + 1128.1 x111 + 373.44 x112 + 1965.6 x113 + 1076.4 x114 + 1689.12 x115
   + 1438.88 x116 + 875.84 x117 + 1756.16 x118 + 1756.16 x119 + 1012.32 x12
   + 1532.72 x120 + 1293.6 x121 + 2075.04 x122 + 841.02 x123 + 1587.82 x124
   + 2401.6 x125 + 1410.15 x126 + 1568.16 x127 + 1330.56 x128
   + 1858.66 x129 + 1000.5 x13 + 1592 x130 + 1588.02 x131 + 1528.32 x132
   + 1146.24 x133 + 899.48 x134 + 784.06 x135 + 1276.8 x136 + 1832 x137
   + 1560 x138 + 1408 x139 + 883.2 x14 + 1396 x140 + 1040 x141 + 1008 x142
   + 880 x143 + 800 x144 + 2041.09 x145 + 1924.8 x146 + 1539.84 x147
   + 1411.52 x148 + 1543.68 x149 + 1207.54 x15 + 1479.36 x150 + 1045.2 x151
   + 128.64 x152 + 2329.34 x153 + 1394.38 x154 + 1365.52 x155
   + 1066.56 x156 + 2413.8 x157 + 607.5 x158 + 3499.72 x159 + 958.42 x16
   + 1960.98 x160 + 1169.28 x161 + 1035.3 x162 + 2246.64 x163
   + 1758.24 x164 + 1652.42 x165 + 1550.67 x166 + 911.68 x167
   + 2839.68 x168 + 2566.32 x169 + 888.32 x17 + 1897.2 x170 + 1260.72 x171
   + 828.24 x172 + 293.76 x173 + 2683.04 x174 + 1636 x175 + 1063.4 x176
   + 822.09 x177 + 560.33 x178 + 2603.5 x179 + 949.28 x18 + 2501 x180
   + 1558 x181 + 2305.71 x182 + 1479.6 x183 + 801.45 x184 + 1400.8 x185
   + 848.72 x186 + 659.2 x187 + 531.48 x188 + 2531.69 x189 + 1256.58 x19
   + 1982.4 x190 + 1222.48 x191 + 3494.16 x192 + 1883.7 x193 + 1672.56 x194
   + 1457.28 x195 + 1457.28 x196 + 430.56 x197 + 1801.1 x198 + 1195.2 x199
   + 612 x2 + 1189.76 x20 + 971.1 x200 + 1248 x201 + 1880.67 x202
   + 1142.58 x203 + 1067.52 x204 + 625.5 x205 + 2353.34 x206 + 2085.82 x207
   + 2018.94 x208 + 1504.8 x209 + 989.12 x21 + 1007.38 x210 + 380.38 x211
   + 1340.8 x212 + 578.22 x213 + 2112.6 x214 + 1915.2 x215 + 361.2 x216
   + 1279.84 x217 + 3240.96 x218 + 346.04 x219 + 190.08 x22 + 1404.36 x220
   + 1700 x221 + 3544.32 x222 + 3526.38 x223 + 823.68 x224 + 823.68 x225
   + 1062.1 x226 + 2847.08 x227 + 1695.06 x228 + 325.6 x229 + 1076.16 x23
   + 996.66 x230 + 5411.2 x231 + 1165.86 x232 + 239.2 x233 + 1383 x234
   + 1868 x235 + 1036.74 x236 + 640 x237 + 1028.45 x238 + 1684.8 x239
   + 545.16 x24 + 1401.41 x240 + 1440 x241 + 926.12 x242 + 834 x243
   + 381 x244 + 1056 x245 + 1500 x246 + 704 x247 + 855 x248 + 627 x249
   + 4249.35 x25 + 1037.82 x250 + 624 x251 + 1008 x252 + 1140 x253
   + 1876.71 x254 + 1668 x255 + 1970.79 x256 + 1658.84 x257 + 834 x258
   + 1002 x259 + 1936.64 x26 + 714 x260 + 1760 x261 + 1053 x262
   + 1383.83 x263 + 1974.72 x264 + 980 x265 + 3100 x266 + 960 x267
   + 8800 x268 + 1464 x269 + 1107.16 x27 + 939 x270 + 1988 x271 + 640 x272
   + 1216 x273 + 1128 x274 + 482 x275 + 1584 x276 + 1536 x277 + 1495 x278
   + 1930 x279 + 925.6 x28 + 1675 x280 + 942.48 x281 + 1475 x282
   + 1420 x283 + 1320 x284 + 2252 x285 + 1536 x286 + 2350 x287 + 1780 x288
   + 1710 x289 + 1360.17 x29 + 1244 x290 + 1280 x291 + 1244 x292 + 860 x293
   + 720 x294 + 1408 x295 + 1680 x296 + 844 x297 + 1724 x298 + 1684.8 x299
   + 960.64 x3 + 1013.88 x30 + 1575 x300 + 5300 x301 + 1760 x302
   + 1920 x303 + 1020 x304 + 1556 x305 + 1735 x306 + 2872 x307
   + 1047.04 x308 + 2420 x309 + 924.63 x31 + 2130 x310 + 1120 x311
   + 1390 x312 + 2512.64 x313 + 4685 x314 + 864 x315 + 1570 x316
   + 5625 x317 + 1620 x318 + 2616 x319 + 735.42 x32 + 3805 x320 + 4175 x321
   + 5885 x322 + 525 x323 + 257.73 x324 + 412 x325 + 4286.56 x326
   + 217.71 x327 + 214.6 x328 + 553.52 x329 + 1317.44 x33 + 286.52 x330
   + 1824 x331 + 2483.2 x332 + 1279.81 x333 + 731.17 x334 + 410.8 x335
   + 1077.12 x336 + 2344.22 x337 + 800 x338 + 1321.08 x339 + 613.89 x34
   + 1101.48 x340 + 930 x341 + 1097.6 x342 + 1800 x343 + 1468.62 x344
   + 2001.96 x345 + 2304 x346 + 1154.64 x347 + 1363.2 x348 + 2049.6 x349
   + 1087.2 x35 + 912 x350 + 1209.6 x351 + 2920.68 x352 + 913.83 x353
   + 2188.8 x354 + 1160 x355 + 2768 x356 + 1673.71 x357 + 2377.28 x358
   + 1280 x359 + 813.6 x36 + 968 x360 + 1080 x361 + 672 x362 + 2148.8 x363
   + 1760 x364 + 2125 x365 + 1636.14 x366 + 1615 x367 + 1319.85 x368
   + 172 x369 + 331.2 x37 + 1981.76 x370 + 1992 x371 + 658.84 x372
   + 556 x373 + 608 x374 + 879 x375 + 2797.2 x376 + 2516 x377 + 1130 x378
   + 1404 x379 + 815.86 x38 + 1579.76 x380 + 1612 x381 + 160 x382
   + 1681.3 x383 + 1634.38 x384 + 713.44 x385 + 1603.04 x386 + 880.64 x387
   + 2684.5 x388 + 825.36 x389 + 724 x39 + 1046.06 x390 + 1609.92 x391
   + 1433.52 x392 + 3459.33 x393 + 1818.88 x394 + 1484.52 x395
   + 3291.2 x396 + 3744 x397 + 1623 x398 + 558 x399 + 350.76 x4
   + 1510.08 x40 + 432 x400 + 2253 x401 + 654 x402 + 2848 x403 + 912 x404
   + 779.52 x405 + 394.24 x406 + 624 x407 + 670 x408 + 5227.2 x409
   + 1393.92 x41 + 1192 x410 + 1752 x411 + 968 x412 + 1084 x413 + 1075 x414
   + 2752.1 x415 + 258 x416 + 718 x417 + 1314 x418 + 5220 x419 + 965.58 x42
   + 3938.24 x420 + 1024 x421 + 2900 x422 + 867.08 x423 + 1836.8 x424
   + 882 x425 + 996 x426 + 1672 x427 + 5695 x428 + 487 x429 + 1088.36 x43
   + 1860 x430 + 21360 x431 + 647.92 x44 + 1182.6 x45 + 1218.78 x46
   + 1368 x47 + 1000.96 x48 + 1184.49 x49 + 1442.07 x5 + 1099.62 x50
   + 778.59 x51 + 1746.4 x52 + 1065.6 x53 + 888 x54 + 1246.56 x55
   + 712.32 x56 + 1886.04 x57 + 1257.36 x58 + 1212.72 x59 + 1469.44 x6
   + 717.96 x60 + 932.5 x61 + 1376.32 x62 + 886.38 x63 + 598.4 x64
   + 1792.5 x65 + 1747.5 x66 + 1616.25 x67 + 1080 x68 + 1504 x69
   + 905.76 x7 + 2205.45 x70 + 1447.68 x71 + 1391.13 x72 + 829.4 x73
   + 1874.88 x74 + 1451.52 x75 + 1330.56 x76 + 1228.5 x77 + 223.02 x78
   + 2455.92 x79 + 1219.1 x8 + 1334.08 x80 + 1030.88 x81 + 807.27 x82
   + 663.25 x83 + 1820.2 x84 + 1687.2 x85 + 1216 x86 + 1090.6 x87
   + 1405.89 x88 + 1394.46 x89 + 388.6 x9 + 2185.04 x90 + 1955.84 x91
   + 1711.36 x92 + 1165.1 x93 + 1290.71 x94 + 995.8 x95 + 911.54 x96
   + 1808.64 x97 + 1689.6 x98 + 1363.2 x99
Subject To
 _C1: 326 x0 + 360 x1 + 228 x10 + 227 x100 + 367 x101 + 270 x102 + 192 x103
   + 600 x104 + 252 x105 + 320 x106 + 335 x107 + 320 x108 + 528 x109
   + 338 x11 + 380 x110 + 290 x111 + 96 x112 + 504 x113 + 276 x114
   + 432 x115 + 368 x116 + 224 x117 + 448 x118 + 448 x119 + 296 x12
   + 391 x120 + 330 x121 + 528 x122 + 214 x123 + 403 x124 + 608 x125
   + 357 x126 + 396 x127 + 336 x128 + 467 x129 + 290 x13 + 400 x130
   + 399 x131 + 384 x132 + 288 x133 + 226 x134 + 197 x135 + 320 x136
   + 458 x137 + 390 x138 + 352 x139 + 256 x14 + 349 x140 + 260 x141
   + 252 x142 + 220 x143 + 200 x144 + 509 x145 + 480 x146 + 384 x147
   + 352 x148 + 384 x149 + 349 x15 + 368 x150 + 260 x151 + 32 x152
   + 578 x153 + 346 x154 + 338 x155 + 264 x156 + 596 x157 + 150 x158
   + 862 x159 + 277 x16 + 483 x160 + 288 x161 + 255 x162 + 552 x163
   + 432 x164 + 406 x165 + 381 x166 + 224 x167 + 696 x168 + 629 x169
   + 256 x17 + 465 x170 + 309 x171 + 203 x172 + 72 x173 + 656 x174
   + 400 x175 + 260 x176 + 201 x177 + 137 x178 + 635 x179 + 272 x18
   + 610 x180 + 380 x181 + 561 x182 + 360 x183 + 195 x184 + 340 x185
   + 206 x186 + 160 x187 + 129 x188 + 613 x189 + 358 x19 + 480 x190
   + 296 x191 + 844 x192 + 455 x193 + 404 x194 + 352 x195 + 352 x196
   + 104 x197 + 434 x198 + 288 x199 + 200 x2 + 338 x20 + 234 x200
   + 300 x201 + 451 x202 + 274 x203 + 256 x204 + 150 x205 + 563 x206
   + 499 x207 + 483 x208 + 360 x209 + 281 x21 + 241 x210 + 91 x211
   + 320 x212 + 138 x213 + 503 x214 + 456 x215 + 86 x216 + 304 x217
   + 768 x218 + 82 x219 + 54 x22 + 332 x220 + 400 x221 + 832 x222
   + 822 x223 + 192 x224 + 192 x225 + 247 x226 + 653 x227 + 387 x228
   + 74 x229 + 304 x23 + 226 x230 + 1216 x231 + 254 x232 + 52 x233
   + 300 x234 + 400 x235 + 222 x236 + 128 x237 + 307 x238 + 432 x239
   + 154 x24 + 353 x240 + 288 x241 + 274 x242 + 278 x243 + 381 x244
   + 352 x245 + 300 x246 + 352 x247 + 285 x248 + 209 x249 + 1197 x25
   + 294 x250 + 208 x251 + 336 x252 + 285 x253 + 517 x254 + 556 x255
   + 537 x256 + 452 x257 + 278 x258 + 501 x259 + 544 x26 + 238 x260
   + 440 x261 + 351 x262 + 371 x263 + 528 x264 + 245 x265 + 620 x266
   + 192 x267 + 2200 x268 + 366 x269 + 311 x27 + 313 x270 + 497 x271
   + 320 x272 + 304 x273 + 282 x274 + 241 x275 + 396 x276 + 384 x277
   + 299 x278 + 386 x279 + 260 x28 + 335 x280 + 238 x281 + 295 x282
   + 284 x283 + 264 x284 + 563 x285 + 512 x286 + 470 x287 + 356 x288
   + 342 x289 + 381 x29 + 311 x290 + 320 x291 + 311 x292 + 215 x293
   + 240 x294 + 352 x295 + 336 x296 + 211 x297 + 431 x298 + 416 x299
   + 304 x3 + 284 x30 + 315 x300 + 1060 x301 + 352 x302 + 640 x303
   + 510 x304 + 389 x305 + 347 x306 + 718 x307 + 256 x308 + 605 x309
   + 259 x31 + 426 x310 + 224 x311 + 278 x312 + 604 x313 + 937 x314
   + 216 x315 + 314 x316 + 1125 x317 + 324 x318 + 600 x319 + 206 x32
   + 761 x320 + 835 x321 + 1177 x322 + 105 x323 + 71 x324 + 103 x325
   + 1168 x326 + 59 x327 + 58 x328 + 148 x329 + 368 x33 + 76 x330
   + 480 x331 + 640 x332 + 329 x333 + 187 x334 + 104 x335 + 272 x336
   + 589 x337 + 160 x338 + 327 x339 + 171 x34 + 268 x340 + 310 x341
   + 280 x342 + 600 x343 + 369 x344 + 498 x345 + 576 x346 + 283 x347
   + 320 x348 + 480 x349 + 302 x35 + 304 x350 + 336 x351 + 798 x352
   + 249 x353 + 576 x354 + 232 x355 + 692 x356 + 437 x357 + 608 x358
   + 320 x359 + 226 x36 + 242 x360 + 270 x361 + 224 x362 + 544 x363
   + 352 x364 + 425 x365 + 407 x366 + 323 x367 + 315 x368 + 172 x369
   + 92 x37 + 563 x370 + 498 x371 + 182 x372 + 556 x373 + 304 x374
   + 293 x375 + 756 x376 + 629 x377 + 226 x378 + 351 x379 + 226 x38
   + 392 x380 + 403 x381 + 32 x382 + 391 x383 + 374 x384 + 208 x385
   + 466 x386 + 256 x387 + 767 x388 + 228 x389 + 200 x39 + 271 x390
   + 416 x391 + 362 x392 + 867 x393 + 448 x394 + 356 x395 + 748 x396
   + 832 x397 + 541 x398 + 186 x399 + 111 x4 + 416 x40 + 216 x400
   + 751 x401 + 218 x402 + 712 x403 + 304 x404 + 224 x405 + 112 x406
   + 208 x407 + 335 x408 + 1440 x409 + 384 x41 + 298 x410 + 480 x411
   + 484 x412 + 271 x413 + 215 x414 + 730 x415 + 129 x416 + 359 x417
   + 438 x418 + 1044 x419 + 266 x42 + 992 x420 + 256 x421 + 580 x422
   + 212 x423 + 448 x424 + 294 x425 + 240 x426 + 400 x427 + 1139 x428
   + 487 x429 + 299 x43 + 372 x430 + 4272 x431 + 178 x44 + 324 x45
   + 333 x46 + 456 x47 + 272 x48 + 321 x49 + 441 x5 + 298 x50 + 211 x51
   + 472 x52 + 288 x53 + 240 x54 + 336 x55 + 192 x56 + 507 x57 + 338 x58
   + 326 x59 + 448 x6 + 193 x60 + 250 x61 + 368 x62 + 237 x63 + 160 x64
   + 478 x65 + 466 x66 + 431 x67 + 288 x68 + 400 x69 + 272 x7 + 585 x70
   + 384 x71 + 369 x72 + 220 x73 + 496 x74 + 384 x75 + 352 x76 + 325 x77
   + 59 x78 + 648 x79 + 365 x8 + 352 x80 + 272 x81 + 213 x82 + 175 x83
   + 479 x84 + 444 x85 + 320 x86 + 287 x87 + 369 x88 + 366 x89 + 116 x9
   + 572 x90 + 512 x91 + 448 x92 + 305 x93 + 337 x94 + 260 x95 + 238 x96
   + 471 x97 + 440 x98 + 355 x99 <= 15210
 _C2: x1 + x100 + x101 + x102 + x104 + x105 + x111 + x115 + x12 + x124
   + x128 + x132 + x134 + x139 + x14 + x140 + x141 + x148 + x149 + x150
   + x164 + x165 + x168 + x171 + x18 + x185 + x188 + x190 + x192 + x193
   + x197 + x198 + x2 + x202 + x210 + x212 + x213 + x215 + x216 + x221
   + x225 + x227 + x25 + x27 + x350 + x351 + x352 + x353 + x354 + x355
   + x356 + x357 + x358 + x359 + x360 + x361 + x362 + x363 + x364 + x365
   + x366 + x367 + x368 + x385 + x387 + x388 + x389 + x392 + x396 + x397
   + x45 + x48 + x54 + x56 + x61 + x76 + x78 + x79 + x80 + x82 + x85 + x91
   + x95 >= 0
 _C3: x106 + x108 + x113 + x118 + x133 + x143 + x144 + x146 + x147 + x154
   + x163 + x166 + x175 + x191 + x199 + x204 + x217 + x222 + x223 + x231
   + x232 + x341 + x342 + x343 + x344 + x345 + x346 + x347 + x348 + x349
   + x394 + x89 + x98 >= 0
 _C4: x112 + x159 + x177 + x203 + x241 + x323 + x324 + x325 + x326 + x327
   + x328 + x329 + x330 + x331 + x332 + x333 + x334 + x335 + x336 + x337
   + x338 + x339 + x340 + x391 + x55 + x69 + x93 >= 0
 Percent_Scifi: 0.19829497939 x0 - 0.80170502061 x1 - 0.80170502061 x10
   - 0.80170502061 x100 - 0.80170502061 x101 - 0.80170502061 x102
   + 0.19829497939 x103 - 0.80170502061 x104 - 0.80170502061 x105
   - 0.80170502061 x106 - 0.80170502061 x107 - 0.80170502061 x108
   + 0.19829497939 x109 + 0.19829497939 x11 + 0.19829497939 x110
   - 0.80170502061 x111 - 0.80170502061 x112 - 0.80170502061 x113
   + 0.19829497939 x114 - 0.80170502061 x115 + 0.19829497939 x116
   + 0.19829497939 x117 - 0.80170502061 x118 + 0.19829497939 x119
   - 0.80170502061 x12 - 0.80170502061 x120 - 0.80170502061 x121
   + 0.19829497939 x122 + 0.19829497939 x123 - 0.80170502061 x124
   + 0.19829497939 x125 + 0.19829497939 x126 + 0.19829497939 x127
   - 0.80170502061 x128 + 0.19829497939 x129 + 0.19829497939 x13
   + 0.19829497939 x130 + 0.19829497939 x131 - 0.80170502061 x132
   - 0.80170502061 x133 - 0.80170502061 x134 + 0.19829497939 x135
   + 0.19829497939 x136 + 0.19829497939 x137 + 0.19829497939 x138
   - 0.80170502061 x139 - 0.80170502061 x14 - 0.80170502061 x140
   - 0.80170502061 x141 + 0.19829497939 x142 - 0.80170502061 x143
   - 0.80170502061 x144 + 0.19829497939 x145 - 0.80170502061 x146
   - 0.80170502061 x147 - 0.80170502061 x148 - 0.80170502061 x149
   + 0.19829497939 x15 - 0.80170502061 x150 + 0.19829497939 x151
   - 0.80170502061 x152 + 0.19829497939 x153 - 0.80170502061 x154
   + 0.19829497939 x155 + 0.19829497939 x156 + 0.19829497939 x157
   + 0.19829497939 x158 - 0.80170502061 x159 + 0.19829497939 x16
   + 0.19829497939 x160 + 0.19829497939 x161 + 0.19829497939 x162
   - 0.80170502061 x163 - 0.80170502061 x164 - 0.80170502061 x165
   - 0.80170502061 x166 + 0.19829497939 x167 - 0.80170502061 x168
   + 0.19829497939 x169 + 0.19829497939 x17 - 0.80170502061 x170
   - 0.80170502061 x171 + 0.19829497939 x172 - 0.80170502061 x173
   - 0.80170502061 x174 - 0.80170502061 x175 + 0.19829497939 x176
   - 0.80170502061 x177 + 0.19829497939 x178 + 0.19829497939 x179
   - 0.80170502061 x18 + 0.19829497939 x180 + 0.19829497939 x181
   + 0.19829497939 x182 + 0.19829497939 x183 + 0.19829497939 x184
   - 0.80170502061 x185 + 0.19829497939 x186 - 0.80170502061 x187
   - 0.80170502061 x188 + 0.19829497939 x189 + 0.19829497939 x19
   - 0.80170502061 x190 - 0.80170502061 x191 - 0.80170502061 x192
   - 0.80170502061 x193 + 0.19829497939 x194 + 0.19829497939 x195
   + 0.19829497939 x196 - 0.80170502061 x197 - 0.80170502061 x198
   - 0.80170502061 x199 - 0.80170502061 x2 + 0.19829497939 x20
   - 0.80170502061 x200 + 0.19829497939 x201 - 0.80170502061 x202
   - 0.80170502061 x203 - 0.80170502061 x204 + 0.19829497939 x205
   - 0.80170502061 x206 + 0.19829497939 x207 + 0.19829497939 x208
   + 0.19829497939 x209 + 0.19829497939 x21 - 0.80170502061 x210
   + 0.19829497939 x211 - 0.80170502061 x212 - 0.80170502061 x213
   - 0.80170502061 x214 - 0.80170502061 x215 - 0.80170502061 x216
   - 0.80170502061 x217 + 0.19829497939 x218 + 0.19829497939 x219
   + 0.19829497939 x22 + 0.19829497939 x220 - 0.80170502061 x221
   - 0.80170502061 x222 - 0.80170502061 x223 - 0.80170502061 x224
   - 0.80170502061 x225 + 0.19829497939 x226 - 0.80170502061 x227
   + 0.19829497939 x228 - 0.80170502061 x229 + 0.19829497939 x23
   + 0.19829497939 x230 - 0.80170502061 x231 - 0.80170502061 x232
   - 0.80170502061 x233 + 0.19829497939 x234 + 0.19829497939 x235
   + 0.19829497939 x236 + 0.19829497939 x237 + 0.19829497939 x238
   + 0.19829497939 x239 + 0.19829497939 x24 + 0.19829497939 x240
   - 0.80170502061 x241 + 0.19829497939 x242 + 0.19829497939 x243
   + 0.19829497939 x244 + 0.19829497939 x245 + 0.19829497939 x246
   + 0.19829497939 x247 + 0.19829497939 x248 + 0.19829497939 x249
   - 0.80170502061 x25 + 0.19829497939 x250 + 0.19829497939 x251
   + 0.19829497939 x252 + 0.19829497939 x253 + 0.19829497939 x254
   + 0.19829497939 x255 + 0.19829497939 x256 + 0.19829497939 x257
   + 0.19829497939 x258 + 0.19829497939 x259 + 0.19829497939 x26
   + 0.19829497939 x260 + 0.19829497939 x261 + 0.19829497939 x262
   + 0.19829497939 x263 + 0.19829497939 x264 + 0.19829497939 x265
   + 0.19829497939 x266 + 0.19829497939 x267 + 0.19829497939 x268
   + 0.19829497939 x269 - 0.80170502061 x27 + 0.19829497939 x270
   + 0.19829497939 x271 + 0.19829497939 x272 + 0.19829497939 x273
   + 0.19829497939 x274 + 0.19829497939 x275 + 0.19829497939 x276
   + 0.19829497939 x277 + 0.19829497939 x278 + 0.19829497939 x279
   + 0.19829497939 x28 + 0.19829497939 x280 + 0.19829497939 x281
   + 0.19829497939 x282 + 0.19829497939 x283 + 0.19829497939 x284
   + 0.19829497939 x285 + 0.19829497939 x286 + 0.19829497939 x287
   + 0.19829497939 x288 + 0.19829497939 x289 - 0.80170502061 x29
   + 0.19829497939 x290 + 0.19829497939 x291 + 0.19829497939 x292
   + 0.19829497939 x293 + 0.19829497939 x294 + 0.19829497939 x295
   + 0.19829497939 x296 + 0.19829497939 x297 + 0.19829497939 x298
   + 0.19829497939 x299 - 0.80170502061 x3 - 0.80170502061 x30
   + 0.19829497939 x300 + 0.19829497939 x301 + 0.19829497939 x302
   + 0.19829497939 x303 + 0.19829497939 x304 + 0.19829497939 x305
   + 0.19829497939 x306 + 0.19829497939 x307 + 0.19829497939 x308
   + 0.19829497939 x309 + 0.19829497939 x31 + 0.19829497939 x310
   + 0.19829497939 x311 + 0.19829497939 x312 + 0.19829497939 x313
   + 0.19829497939 x314 + 0.19829497939 x315 + 0.19829497939 x316
   + 0.19829497939 x317 + 0.19829497939 x318 + 0.19829497939 x319
   + 0.19829497939 x32 + 0.19829497939 x320 + 0.19829497939 x321
   + 0.19829497939 x322 - 0.80170502061 x323 - 0.80170502061 x324
   - 0.80170502061 x325 - 0.80170502061 x326 - 0.80170502061 x327
   - 0.80170502061 x328 - 0.80170502061 x329 + 0.19829497939 x33
   - 0.80170502061 x330 - 0.80170502061 x331 - 0.80170502061 x332
   - 0.80170502061 x333 - 0.80170502061 x334 - 0.80170502061 x335
   - 0.80170502061 x336 - 0.80170502061 x337 - 0.80170502061 x338
   - 0.80170502061 x339 + 0.19829497939 x34 - 0.80170502061 x340
   - 0.80170502061 x341 - 0.80170502061 x342 - 0.80170502061 x343
   - 0.80170502061 x344 - 0.80170502061 x345 - 0.80170502061 x346
   - 0.80170502061 x347 - 0.80170502061 x348 - 0.80170502061 x349
   + 0.19829497939 x35 - 0.80170502061 x350 - 0.80170502061 x351
   - 0.80170502061 x352 - 0.80170502061 x353 - 0.80170502061 x354
   - 0.80170502061 x355 - 0.80170502061 x356 - 0.80170502061 x357
   - 0.80170502061 x358 - 0.80170502061 x359 - 0.80170502061 x36
   - 0.80170502061 x360 - 0.80170502061 x361 - 0.80170502061 x362
   - 0.80170502061 x363 - 0.80170502061 x364 - 0.80170502061 x365
   - 0.80170502061 x366 - 0.80170502061 x367 - 0.80170502061 x368
   - 0.80170502061 x369 + 0.19829497939 x37 - 0.80170502061 x370
   - 0.80170502061 x371 - 0.80170502061 x372 - 0.80170502061 x373
   - 0.80170502061 x374 - 0.80170502061 x375 - 0.80170502061 x376
   - 0.80170502061 x377 - 0.80170502061 x378 - 0.80170502061 x379
   + 0.19829497939 x38 - 0.80170502061 x380 - 0.80170502061 x381
   - 0.80170502061 x382 - 0.80170502061 x383 - 0.80170502061 x384
   - 0.80170502061 x385 + 0.19829497939 x386 - 0.80170502061 x387
   - 0.80170502061 x388 - 0.80170502061 x389 - 0.80170502061 x39
   + 0.19829497939 x390 - 0.80170502061 x391 - 0.80170502061 x392
   + 0.19829497939 x393 - 0.80170502061 x394 + 0.19829497939 x395
   - 0.80170502061 x396 - 0.80170502061 x397 - 0.80170502061 x398
   - 0.80170502061 x399 + 0.19829497939 x4 + 0.19829497939 x40
   - 0.80170502061 x400 - 0.80170502061 x401 - 0.80170502061 x402
   - 0.80170502061 x403 - 0.80170502061 x404 - 0.80170502061 x405
   - 0.80170502061 x406 - 0.80170502061 x407 - 0.80170502061 x408
   - 0.80170502061 x409 + 0.19829497939 x41 - 0.80170502061 x410
   - 0.80170502061 x411 - 0.80170502061 x412 - 0.80170502061 x413
   - 0.80170502061 x414 - 0.80170502061 x415 - 0.80170502061 x416
   - 0.80170502061 x417 - 0.80170502061 x418 - 0.80170502061 x419
   + 0.19829497939 x42 - 0.80170502061 x420 - 0.80170502061 x421
   - 0.80170502061 x422 - 0.80170502061 x423 - 0.80170502061 x424
   - 0.80170502061 x425 - 0.80170502061 x426 - 0.80170502061 x427
   - 0.80170502061 x428 - 0.80170502061 x429 + 0.19829497939 x43
   - 0.80170502061 x430 - 0.80170502061 x431 + 0.19829497939 x44
   - 0.80170502061 x45 + 0.19829497939 x46 + 0.19829497939 x47
   - 0.80170502061 x48 - 0.80170502061 x49 + 0.19829497939 x5
   - 0.80170502061 x50 + 0.19829497939 x51 + 0.19829497939 x52
   + 0.19829497939 x53 - 0.80170502061 x54 - 0.80170502061 x55
   - 0.80170502061 x56 + 0.19829497939 x57 + 0.19829497939 x58
   + 0.19829497939 x59 + 0.19829497939 x6 + 0.19829497939 x60
   - 0.80170502061 x61 + 0.19829497939 x62 - 0.80170502061 x63
   + 0.19829497939 x64 + 0.19829497939 x65 + 0.19829497939 x66
   + 0.19829497939 x67 + 0.19829497939 x68 - 0.80170502061 x69
   + 0.19829497939 x7 + 0.19829497939 x70 + 0.19829497939 x71
   + 0.19829497939 x72 + 0.19829497939 x73 + 0.19829497939 x74
   - 0.80170502061 x75 - 0.80170502061 x76 + 0.19829497939 x77
   - 0.80170502061 x78 - 0.80170502061 x79 + 0.19829497939 x8
   - 0.80170502061 x80 + 0.19829497939 x81 - 0.80170502061 x82
   + 0.19829497939 x83 + 0.19829497939 x84 - 0.80170502061 x85
   + 0.19829497939 x86 + 0.19829497939 x87 + 0.19829497939 x88
   - 0.80170502061 x89 + 0.19829497939 x9 + 0.19829497939 x90
   - 0.80170502061 x91 + 0.19829497939 x92 - 0.80170502061 x93
   + 0.19829497939 x94 - 0.80170502061 x95 + 0.19829497939 x96
   + 0.19829497939 x97 - 0.80170502061 x98 + 0.19829497939 x99 >= 0
 Percent_Read: - 0.5893107257188001 x0 - 0.5893107257188001 x1
   - 0.5893107257188001 x10 - 0.5893107257188001 x100
   - 0.5893107257188001 x101 - 0.5893107257188001 x102
   - 0.5893107257188001 x103 - 0.5893107257188001 x104
   - 0.5893107257188001 x105 - 0.5893107257188001 x106
   - 0.5893107257188001 x107 - 0.5893107257188001 x108
   - 0.5893107257188001 x109 - 0.5893107257188001 x11
   - 0.5893107257188001 x110 - 0.5893107257188001 x111
   - 0.5893107257188001 x112 - 0.5893107257188001 x113
   - 0.5893107257188001 x114 - 0.5893107257188001 x115
   - 0.5893107257188001 x116 - 0.5893107257188001 x117
   - 0.5893107257188001 x118 - 0.5893107257188001 x119
   - 0.5893107257188001 x12 - 0.5893107257188001 x120
   - 0.5893107257188001 x121 - 0.5893107257188001 x122
   - 0.5893107257188001 x123 - 0.5893107257188001 x124
   - 0.5893107257188001 x125 - 0.5893107257188001 x126
   - 0.5893107257188001 x127 - 0.5893107257188001 x128
   - 0.5893107257188001 x129 - 0.5893107257188001 x13
   - 0.5893107257188001 x130 - 0.5893107257188001 x131
   - 0.5893107257188001 x132 - 0.5893107257188001 x133
   - 0.5893107257188001 x134 - 0.5893107257188001 x135
   - 0.5893107257188001 x136 - 0.5893107257188001 x137
   - 0.5893107257188001 x138 - 0.5893107257188001 x139
   - 0.5893107257188001 x14 - 0.5893107257188001 x140
   - 0.5893107257188001 x141 - 0.5893107257188001 x142
   - 0.5893107257188001 x143 - 0.5893107257188001 x144
   - 0.5893107257188001 x145 - 0.5893107257188001 x146
   - 0.5893107257188001 x147 - 0.5893107257188001 x148
   - 0.5893107257188001 x149 - 0.5893107257188001 x15
   - 0.5893107257188001 x150 - 0.5893107257188001 x151
   - 0.5893107257188001 x152 - 0.5893107257188001 x153
   - 0.5893107257188001 x154 - 0.5893107257188001 x155
   - 0.5893107257188001 x156 - 0.5893107257188001 x157
   - 0.5893107257188001 x158 - 0.5893107257188001 x159
   - 0.5893107257188001 x16 - 0.5893107257188001 x160
   - 0.5893107257188001 x161 - 0.5893107257188001 x162
   - 0.5893107257188001 x163 - 0.5893107257188001 x164
   - 0.5893107257188001 x165 - 0.5893107257188001 x166
   - 0.5893107257188001 x167 - 0.5893107257188001 x168
   - 0.5893107257188001 x169 - 0.5893107257188001 x17
   - 0.5893107257188001 x170 - 0.5893107257188001 x171
   - 0.5893107257188001 x172 - 0.5893107257188001 x173
   - 0.5893107257188001 x174 - 0.5893107257188001 x175
   - 0.5893107257188001 x176 - 0.5893107257188001 x177
   - 0.5893107257188001 x178 - 0.5893107257188001 x179
   - 0.5893107257188001 x18 - 0.5893107257188001 x180
   - 0.5893107257188001 x181 - 0.5893107257188001 x182
   - 0.5893107257188001 x183 - 0.5893107257188001 x184
   - 0.5893107257188001 x185 - 0.5893107257188001 x186
   - 0.5893107257188001 x187 - 0.5893107257188001 x188
   - 0.5893107257188001 x189 - 0.5893107257188001 x19
   - 0.5893107257188001 x190 - 0.5893107257188001 x191
   - 0.5893107257188001 x192 - 0.5893107257188001 x193
   - 0.5893107257188001 x194 - 0.5893107257188001 x195
   - 0.5893107257188001 x196 - 0.5893107257188001 x197
   - 0.5893107257188001 x198 - 0.5893107257188001 x199
   - 0.5893107257188001 x2 - 0.5893107257188001 x20
   - 0.5893107257188001 x200 - 0.5893107257188001 x201
   - 0.5893107257188001 x202 - 0.5893107257188001 x203
   - 0.5893107257188001 x204 - 0.5893107257188001 x205
   - 0.5893107257188001 x206 - 0.5893107257188001 x207
   - 0.5893107257188001 x208 - 0.5893107257188001 x209
   - 0.5893107257188001 x21 - 0.5893107257188001 x210
   - 0.5893107257188001 x211 - 0.5893107257188001 x212
   - 0.5893107257188001 x213 - 0.5893107257188001 x214
   - 0.5893107257188001 x215 - 0.5893107257188001 x216
   - 0.5893107257188001 x217 - 0.5893107257188001 x218
   - 0.5893107257188001 x219 - 0.5893107257188001 x22
   - 0.5893107257188001 x220 - 0.5893107257188001 x221
   - 0.5893107257188001 x222 - 0.5893107257188001 x223
   - 0.5893107257188001 x224 - 0.5893107257188001 x225
   - 0.5893107257188001 x226 - 0.5893107257188001 x227
   - 0.5893107257188001 x228 - 0.5893107257188001 x229
   - 0.5893107257188001 x23 - 0.5893107257188001 x230
   - 0.5893107257188001 x231 - 0.5893107257188001 x232
   - 0.5893107257188001 x233 - 0.5893107257188001 x234
   - 0.5893107257188001 x235 - 0.5893107257188001 x236
   - 0.5893107257188001 x237 - 0.5893107257188001 x238
   + 0.4106892742812 x239 - 0.5893107257188001 x24
   - 0.5893107257188001 x240 + 0.4106892742812 x241
   - 0.5893107257188001 x242 + 0.4106892742812 x243 + 0.4106892742812 x244
   + 0.4106892742812 x245 + 0.4106892742812 x246 + 0.4106892742812 x247
   + 0.4106892742812 x248 + 0.4106892742812 x249 - 0.5893107257188001 x25
   + 0.4106892742812 x250 + 0.4106892742812 x251 + 0.4106892742812 x252
   + 0.4106892742812 x253 + 0.4106892742812 x254 + 0.4106892742812 x255
   + 0.4106892742812 x256 + 0.4106892742812 x257 + 0.4106892742812 x258
   + 0.4106892742812 x259 - 0.5893107257188001 x26 + 0.4106892742812 x260
   + 0.4106892742812 x261 + 0.4106892742812 x262 + 0.4106892742812 x263
   + 0.4106892742812 x264 + 0.4106892742812 x265 + 0.4106892742812 x266
   + 0.4106892742812 x267 + 0.4106892742812 x268 + 0.4106892742812 x269
   - 0.5893107257188001 x27 + 0.4106892742812 x270 + 0.4106892742812 x271
   + 0.4106892742812 x272 + 0.4106892742812 x273 + 0.4106892742812 x274
   + 0.4106892742812 x275 + 0.4106892742812 x276 + 0.4106892742812 x277
   + 0.4106892742812 x278 + 0.4106892742812 x279 - 0.5893107257188001 x28
   + 0.4106892742812 x280 + 0.4106892742812 x281 + 0.4106892742812 x282
   + 0.4106892742812 x283 + 0.4106892742812 x284 + 0.4106892742812 x285
   + 0.4106892742812 x286 + 0.4106892742812 x287 + 0.4106892742812 x288
   + 0.4106892742812 x289 - 0.5893107257188001 x29 + 0.4106892742812 x290
   + 0.4106892742812 x291 + 0.4106892742812 x292 + 0.4106892742812 x293
   + 0.4106892742812 x294 + 0.4106892742812 x295 + 0.4106892742812 x296
   + 0.4106892742812 x297 + 0.4106892742812 x298 + 0.4106892742812 x299
   - 0.5893107257188001 x3 - 0.5893107257188001 x30 + 0.4106892742812 x300
   + 0.4106892742812 x301 + 0.4106892742812 x302 + 0.4106892742812 x303
   + 0.4106892742812 x304 + 0.4106892742812 x305 + 0.4106892742812 x306
   + 0.4106892742812 x307 + 0.4106892742812 x308 + 0.4106892742812 x309
   - 0.5893107257188001 x31 + 0.4106892742812 x310 + 0.4106892742812 x311
   + 0.4106892742812 x312 + 0.4106892742812 x313 + 0.4106892742812 x314
   + 0.4106892742812 x315 + 0.4106892742812 x316 + 0.4106892742812 x317
   + 0.4106892742812 x318 + 0.4106892742812 x319 - 0.5893107257188001 x32
   + 0.4106892742812 x320 + 0.4106892742812 x321 + 0.4106892742812 x322
   + 0.4106892742812 x323 + 0.4106892742812 x324 + 0.4106892742812 x325
   + 0.4106892742812 x326 + 0.4106892742812 x327 + 0.4106892742812 x328
   + 0.4106892742812 x329 - 0.5893107257188001 x33 + 0.4106892742812 x330
   + 0.4106892742812 x331 + 0.4106892742812 x332 + 0.4106892742812 x333
   + 0.4106892742812 x334 + 0.4106892742812 x335 + 0.4106892742812 x336
   + 0.4106892742812 x337 + 0.4106892742812 x338 + 0.4106892742812 x339
   - 0.5893107257188001 x34 + 0.4106892742812 x340 + 0.4106892742812 x341
   + 0.4106892742812 x342 + 0.4106892742812 x343 + 0.4106892742812 x344
   + 0.4106892742812 x345 + 0.4106892742812 x346 + 0.4106892742812 x347
   + 0.4106892742812 x348 + 0.4106892742812 x349 - 0.5893107257188001 x35
   + 0.4106892742812 x350 + 0.4106892742812 x351 + 0.4106892742812 x352
   + 0.4106892742812 x353 + 0.4106892742812 x354 + 0.4106892742812 x355
   + 0.4106892742812 x356 + 0.4106892742812 x357 + 0.4106892742812 x358
   + 0.4106892742812 x359 - 0.5893107257188001 x36 + 0.4106892742812 x360
   + 0.4106892742812 x361 + 0.4106892742812 x362 + 0.4106892742812 x363
   + 0.4106892742812 x364 + 0.4106892742812 x365 + 0.4106892742812 x366
   + 0.4106892742812 x367 + 0.4106892742812 x368 + 0.4106892742812 x369
   - 0.5893107257188001 x37 + 0.4106892742812 x370 + 0.4106892742812 x371
   + 0.4106892742812 x372 + 0.4106892742812 x373 + 0.4106892742812 x374
   + 0.4106892742812 x375 + 0.4106892742812 x376 + 0.4106892742812 x377
   + 0.4106892742812 x378 + 0.4106892742812 x379 - 0.5893107257188001 x38
   + 0.4106892742812 x380 + 0.4106892742812 x381 + 0.4106892742812 x382
   + 0.4106892742812 x383 + 0.4106892742812 x384 - 0.5893107257188001 x385
   - 0.5893107257188001 x386 - 0.5893107257188001 x387
   - 0.5893107257188001 x388 - 0.5893107257188001 x389
   - 0.5893107257188001 x39 - 0.5893107257188001 x390
   - 0.5893107257188001 x391 - 0.5893107257188001 x392
   - 0.5893107257188001 x393 - 0.5893107257188001 x394
   - 0.5893107257188001 x395 - 0.5893107257188001 x396
   - 0.5893107257188001 x397 + 0.4106892742812 x398 + 0.4106892742812 x399
   - 0.5893107257188001 x4 - 0.5893107257188001 x40 + 0.4106892742812 x400
   + 0.4106892742812 x401 + 0.4106892742812 x402 + 0.4106892742812 x403
   + 0.4106892742812 x404 + 0.4106892742812 x405 + 0.4106892742812 x406
   + 0.4106892742812 x407 + 0.4106892742812 x408 + 0.4106892742812 x409
   - 0.5893107257188001 x41 + 0.4106892742812 x410 + 0.4106892742812 x411
   + 0.4106892742812 x412 + 0.4106892742812 x413 + 0.4106892742812 x414
   + 0.4106892742812 x415 + 0.4106892742812 x416 + 0.4106892742812 x417
   + 0.4106892742812 x418 + 0.4106892742812 x419 - 0.5893107257188001 x42
   + 0.4106892742812 x420 + 0.4106892742812 x421 + 0.4106892742812 x422
   + 0.4106892742812 x423 + 0.4106892742812 x424 + 0.4106892742812 x425
   + 0.4106892742812 x426 + 0.4106892742812 x427 + 0.4106892742812 x428
   + 0.4106892742812 x429 - 0.5893107257188001 x43 + 0.4106892742812 x430
   + 0.4106892742812 x431 - 0.5893107257188001 x44 - 0.5893107257188001 x45
   - 0.5893107257188001 x46 - 0.5893107257188001 x47
   - 0.5893107257188001 x48 - 0.5893107257188001 x49
   - 0.5893107257188001 x5 - 0.5893107257188001 x50
   - 0.5893107257188001 x51 - 0.5893107257188001 x52
   - 0.5893107257188001 x53 - 0.5893107257188001 x54
   - 0.5893107257188001 x55 - 0.5893107257188001 x56
   - 0.5893107257188001 x57 - 0.5893107257188001 x58
   - 0.5893107257188001 x59 - 0.5893107257188001 x6
   - 0.5893107257188001 x60 - 0.5893107257188001 x61
   - 0.5893107257188001 x62 - 0.5893107257188001 x63
   - 0.5893107257188001 x64 - 0.5893107257188001 x65
   - 0.5893107257188001 x66 - 0.5893107257188001 x67
   - 0.5893107257188001 x68 - 0.5893107257188001 x69
   - 0.5893107257188001 x7 - 0.5893107257188001 x70
   - 0.5893107257188001 x71 - 0.5893107257188001 x72
   - 0.5893107257188001 x73 - 0.5893107257188001 x74
   - 0.5893107257188001 x75 - 0.5893107257188001 x76
   - 0.5893107257188001 x77 - 0.5893107257188001 x78
   - 0.5893107257188001 x79 - 0.5893107257188001 x8
   - 0.5893107257188001 x80 - 0.5893107257188001 x81
   - 0.5893107257188001 x82 - 0.5893107257188001 x83
   - 0.5893107257188001 x84 - 0.5893107257188001 x85
   - 0.5893107257188001 x86 - 0.5893107257188001 x87
   - 0.5893107257188001 x88 - 0.5893107257188001 x89
   - 0.5893107257188001 x9 - 0.5893107257188001 x90
   - 0.5893107257188001 x91 - 0.5893107257188001 x92
   - 0.5893107257188001 x93 - 0.5893107257188001 x94
   - 0.5893107257188001 x95 - 0.5893107257188001 x96
   - 0.5893107257188001 x97 - 0.5893107257188001 x98
   - 0.5893107257188001 x99 <= 0
Bounds
 x0 <= 1
 x1 <= 1
 x10 <= 1
 x100 <= 1
 x101 <= 1
 x102 <= 1
 x103 <= 1
 x104 <= 1
 x105 <= 1
 x106 <= 1
 x107 <= 1
 x108 <= 1
 x109 <= 1
 x11 <= 1
 x110 <= 1
 x111 <= 1
 x112 <= 1
 x113 <= 1
 x114 <= 1
 x115 <= 1
 x116 <= 1
 x117 <= 1
 x118 <= 1
 x119 <= 1
 x12 <= 1
 x120 <= 1
 x121 <= 1
 x122 <= 1
 x123 <= 1
 x124 <= 1
 x125 <= 1
 x126 <= 1
 x127 <= 1
 x128 <= 1
 x129 <= 1
 x13 <= 1
 x130 <= 1
 x131 <= 1
 x132 <= 1
 x133 <= 1
 x134 <= 1
 x135 <= 1
 x136 <= 1
 x137 <= 1
 x138 <= 1
 x139 <= 1
 x14 <= 1
 x140 <= 1
 x141 <= 1
 x142 <= 1
 x143 <= 1
 x144 <= 1
 x145 <= 1
 x146 <= 1
 x147 <= 1
 x148 <= 1
 x149 <= 1
 x15 <= 1
 x150 <= 1
 x151 <= 1
 x152 <= 1
 x153 <= 1
 x154 <= 1
 x155 <= 1
 x156 <= 1
 x157 <= 1
 x158 <= 1
 x159 <= 1
 x16 <= 1
 x160 <= 1
 x161 <= 1
 x162 <= 1
 x163 <= 1
 x164 <= 1
 x165 <= 1
 x166 <= 1
 x167 <= 1
 x168 <= 1
 x169 <= 1
 x17 <= 1
 x170 <= 1
 x171 <= 1
 x172 <= 1
 x173 <= 1
 x174 <= 1
 x175 <= 1
 x176 <= 1
 x177 <= 1
 x178 <= 1
 x179 <= 1
 x18 <= 1
 x180 <= 1
 x181 <= 1
 x182 <= 1
 x183 <= 1
 x184 <= 1
 x185 <= 1
 x186 <= 1
 x187 <= 1
 x188 <= 1
 x189 <= 1
 x19 <= 1
 x190 <= 1
 x191 <= 1
 x192 <= 1
 x193 <= 1
 x194 <= 1
 x195 <= 1
 x196 <= 1
 x197 <= 1
 x198 <= 1
 x199 <= 1
 x2 <= 1
 x20 <= 1
 x200 <= 1
 x201 <= 1
 x202 <= 1
 x203 <= 1
 x204 <= 1
 x205 <= 1
 x206 <= 1
 x207 <= 1
 x208 <= 1
 x209 <= 1
 x21 <= 1
 x210 <= 1
 x211 <= 1
 x212 <= 1
 x213 <= 1
 x214 <= 1
 x215 <= 1
 x216 <= 1
 x217 <= 1
 x218 <= 1
 x219 <= 1
 x22 <= 1
 x220 <= 1
 x221 <= 1
 x222 <= 1
 x223 <= 1
 x224 <= 1
 x225 <= 1
 x226 <= 1
 x227 <= 1
 x228 <= 1
 x229 <= 1
 x23 <= 1
 x230 <= 1
 x231 <= 1
 x232 <= 1
 x233 <= 1
 x234 <= 1
 x235 <= 1
 x236 <= 1
 x237 <= 1
 x238 <= 1
 x239 <= 1
 x24 <= 1
 x240 <= 1
 x241 <= 1
 x242 <= 1
 x243 <= 1
 x244 <= 1
 x245 <= 1
 x246 <= 1
 x247 <= 1
 x248 <= 1
 x249 <= 1
 x25 <= 1
 x250 <= 1
 x251 <= 1
 x252 <= 1
 x253 <= 1
 x254 <= 1
 x255 <= 1
 x256 <= 1
 x257 <= 1
 x258 <= 1
 x259 <= 1
 x26 <= 1
 x260 <= 1
 x261 <= 1
 x262 <= 1
 x263 <= 1
 x264 <= 1
 x265 <= 1
 x266 <= 1
 x267 <= 1
 x268 <= 1
 x269 <= 1
 x27 <= 1
 x270 <= 1
 x271 <= 1
 x272 <= 1
 x273 <= 1
 x274 <= 1
 x275 <= 1
 x276 <= 1
 x277 <= 1
 x278 <= 1
 x279 <= 1
 x28 <= 1
 x280 <= 1
 x281 <= 1
 x282 <= 1
 x283 <= 1
 x284 <= 1
 x285 <= 1
 x286 <= 1
 x287 <= 1
 x288 <= 1
 x289 <= 1
 x29 <= 1
 x290 <= 1
 x291 <= 1
 x292 <= 1
 x293 <= 1
 x294 <= 1
 x295 <= 1
 x296 <= 1
 x297 <= 1
 x298 <= 1
 x299 <= 1
 x3 <= 1
 x30 <= 1
 x300 <= 1
 x301 <= 1
 x302 <= 1
 x303 <= 1
 x304 <= 1
 x305 <= 1
 x306 <= 1
 x307 <= 1
 x308 <= 1
 x309 <= 1
 x31 <= 1
 x310 <= 1
 x311 <= 1
 x312 <= 1
 x313 <= 1
 x314 <= 1
 x315 <= 1
 x316 <= 1
 x317 <= 1
 x318 <= 1
 x319 <= 1
 x32 <= 1
 x320 <= 1
 x321 <= 1
 x322 <= 1
 x323 <= 1
 x324 <= 1
 x325 <= 1
 x326 <= 1
 x327 <= 1
 x328 <= 1
 x329 <= 1
 x33 <= 1
 x330 <= 1
 x331 <= 1
 x332 <= 1
 x333 <= 1
 x334 <= 1
 x335 <= 1
 x336 <= 1
 x337 <= 1
 x338 <= 1
 x339 <= 1
 x34 <= 1
 x340 <= 1
 x341 <= 1
 x342 <= 1
 x343 <= 1
 x344 <= 1
 x345 <= 1
 x346 <= 1
 x347 <= 1
 x348 <= 1
 x349 <= 1
 x35 <= 1
 x350 <= 1
 x351 <= 1
 x352 <= 1
 x353 <= 1
 x354 <= 1
 x355 <= 1
 x356 <= 1
 x357 <= 1
 x358 <= 1
 x359 <= 1
 x36 <= 1
 x360 <= 1
 x361 <= 1
 x362 <= 1
 x363 <= 1
 x364 <= 1
 x365 <= 1
 x366 <= 1
 x367 <= 1
 x368 <= 1
 x369 <= 1
 x37 <= 1
 x370 <= 1
 x371 <= 1
 x372 <= 1
 x373 <= 1
 x374 <= 1
 x375 <= 1
 x376 <= 1
 x377 <= 1
 x378 <= 1
 x379 <= 1
 x38 <= 1
 x380 <= 1
 x381 <= 1
 x382 <= 1
 x383 <= 1
 x384 <= 1
 x385 <= 1
 x386 <= 1
 x387 <= 1
 x388 <= 1
 x389 <= 1
 x39 <= 1
 x390 <= 1
 x391 <= 1
 x392 <= 1
 x393 <= 1
 x394 <= 1
 x395 <= 1
 x396 <= 1
 x397 <= 1
 x398 <= 1
 x399 <= 1
 x4 <= 1
 x40 <= 1
 x400 <= 1
 x401 <= 1
 x402 <= 1
 x403 <= 1
 x404 <= 1
 x405 <= 1
 x406 <= 1
 x407 <= 1
 x408 <= 1
 x409 <= 1
 x41 <= 1
 x410 <= 1
 x411 <= 1
 x412 <= 1
 x413 <= 1
 x414 <= 1
 x415 <= 1
 x416 <= 1
 x417 <= 1
 x418 <= 1
 x419 <= 1
 x42 <= 1
 x420 <= 1
 x421 <= 1
 x422 <= 1
 x423 <= 1
 x424 <= 1
 x425 <= 1
 x426 <= 1
 x427 <= 1
 x428 <= 1
 x429 <= 1
 x43 <= 1
 x430 <= 1
 x431 <= 1
 x44 <= 1
 x45 <= 1
 x46 <= 1
 x47 <= 1
 x48 <= 1
 x49 <= 1
 x5 <= 1
 x50 <= 1
 x51 <= 1
 x52 <= 1
 x53 <= 1
 x54 <= 1
 x55 <= 1
 x56 <= 1
 x57 <= 1
 x58 <= 1
 x59 <= 1
 x6 <= 1
 x60 <= 1
 x61 <= 1
 x62 <= 1
 x63 <= 1
 x64 <= 1
 x65 <= 1
 x66 <= 1
 x67 <= 1
 x68 <= 1
 x69 <= 1
 x7 <= 1
 x70 <= 1
 x71 <= 1
 x72 <= 1
 x73 <= 1
 x74 <= 1
 x75 <= 1
 x76 <= 1
 x77 <= 1
 x78 <= 1
 x79 <= 1
 x8 <= 1
 x80 <= 1
 x81 <= 1
 x82 <= 1
 x83 <= 1
 x84 <= 1
 x85 <= 1
 x86 <= 1
 x87 <= 1
 x88 <= 1
 x89 <= 1
 x9 <= 1
 x90 <= 1
 x91 <= 1
 x92 <= 1
 x93 <= 1
 x94 <= 1
 x95 <= 1
 x96 <= 1
 x97 <= 1
 x98 <= 1
 x99 <= 1
Generals
 x0 x1 x10 x100 x101 x102 x103 x104 x105 x106 x107 x108 x109 x11 x110 x111
 x112 x113 x114 x115 x116 x117 x118 x119 x12 x120 x121 x122 x123 x124 x125
 x126 x127 x128 x129 x13 x130 x131 x132 x133 x134 x135 x136 x137 x138 x139
 x14 x140 x141 x142 x143 x144 x145 x146 x147 x148 x149 x15 x150 x151 x152
 x153 x154 x155 x156 x157 x158 x159 x16 x160 x161 x162 x163 x164 x165 x166
 x167 x168 x169 x17 x170 x171 x172 x173 x174 x175 x176 x177 x178 x179 x18
 x180 x181 x182 x183 x184 x185 x186 x187 x188 x189 x19 x190 x191 x192 x193
 x194 x195 x196 x197 x198 x199 x2 x20 x200 x201 x202 x203 x204 x205 x206
 x207 x208 x209 x21 x210 x211 x212 x213 x214 x215 x216 x217 x218 x219 x22
 x220 x221 x222 x223 x224 x225 x226 x227 x228 x229 x23 x230 x231 x232 x233
 x234 x235 x236 x237 x238 x239 x24 x240 x241 x242 x243 x244 x245 x246 x247
 x248 x249 x25 x250 x251 x252 x253 x254 x255 x256 x257 x258 x259 x26 x260
 x261 x262 x263 x264 x265 x266 x267 x268 x269 x27 x270 x271 x272 x273 x274
 x275 x276 x277 x278 x279 x28 x280 x281 x282 x283 x284 x285 x286 x287 x288
 x289 x29 x290 x291 x292 x293 x294 x295 x296 x297 x298 x299 x3 x30 x300
 x301 x302 x303 x304 x305 x306 x307 x308 x309 x31 x310 x311 x312 x313 x314
 x315 x316 x317 x318 x319 x32 x320 x321 x322 x323 x324 x325 x326 x327 x328
 x329 x33 x330 x331 x332 x333 x334 x335 x336 x337 x338 x339 x34 x340 x341
 x342 x343 x344 x345 x346 x347 x348 x349 x35 x350 x351 x352 x353 x354 x355
 x356 x357 x358 x359 x36 x360 x361 x362 x363 x364 x365 x366 x367 x368 x369
 x37 x370 x371 x372 x373 x374 x375 x376 x377 x378 x379 x38 x380 x381 x382
 x383 x384 x385 x386 x387 x388 x389 x39 x390 x391 x392 x393 x394 x395 x396
 x397 x398 x399 x4 x40 x400 x401 x402 x403 x404 x405 x406 x407 x408 x409
 x41 x410 x411 x412 x413 x414 x415 x416 x417 x418 x419 x42 x420 x421 x422
 x423 x424 x425 x426 x427 x428 x429 x43 x430 x431 x44 x45 x46 x47 x48 x49
 x5 x50 x51 x52 x53 x54 x55 x56 x57 x58 x59 x6 x60 x61 x62 x63 x64 x65 x66
 x67 x68 x69 x7 x70 x71 x72 x73 x74 x75 x76 x77 x78 x79 x8 x80 x81 x82 x83
 x84 x85 x86 x87 x88 x89 x9 x90 x91 x92 x93 x94 x95 x96 x97 x98 x99
End
